unsat
(:cnf-encoding-aux-vars   185
 :eliminated-applications 3
 :eliminated-vars         138
 :max-memory              19.95
 :memory                  18.96
 :nlsat-conflicts         2
 :nlsat-decisions         3
 :nlsat-propagations      8
 :num-allocs              864485
 :rlimit-count            146072
 :time                    0.07
 :total-time              0.09)
